50
    10    41    24    17    41     3    44    85    14    89    83    63    32     2    51    26    37    11    49    62    12    48    67    74    79    13    87    82     5    72    80    22    92    54     9    44    87    56    28    15    76    40    79    17    85    32    99    47    82    27
     9     6     8     9     2     9     3     4     4     4     6     7     4     5     9    10     3     4    10     5     3     4     4     5    10    10     4     9     1     4     9     2     6     7     7    10     6     1     1     9     6    10     4     4     1     3     2    10    10     2
     0     0     0     0   458     0   630   303     0   367   255     0     0     0     0   767   309   334     0   604   571     0     0   674     0   683   155     0     0   155   712     0   187   341     0    69   543     0   689   516   650     0   496     0   742     0     0   193    86   184
